p cnf 60 636
1 7 13 19 25 31 37 43 49 55 0
2 8 14 20 26 32 38 44 50 56 0
3 9 15 21 27 33 39 45 51 57 0
4 10 16 22 28 34 40 46 52 58 0
5 11 17 23 29 35 41 47 53 59 0
6 12 18 24 30 36 42 48 54 60 0
-1 -2 0
-1 -3 0
-1 -4 0
-1 -5 0
-1 -6 0
-2 -3 0
-2 -4 0
-2 -5 0
-2 -6 0
-3 -4 0
-3 -5 0
-3 -6 0
-4 -5 0
-4 -6 0
-5 -6 0
-7 -8 0
-7 -9 0
-7 -10 0
-7 -11 0
-7 -12 0
-8 -9 0
-8 -10 0
-8 -11 0
-8 -12 0
-9 -10 0
-9 -11 0
-9 -12 0
-10 -11 0
-10 -12 0
-11 -12 0
-13 -14 0
-13 -15 0
-13 -16 0
-13 -17 0
-13 -18 0
-14 -15 0
-14 -16 0
-14 -17 0
-14 -18 0
-15 -16 0
-15 -17 0
-15 -18 0
-16 -17 0
-16 -18 0
-17 -18 0
-19 -20 0
-19 -21 0
-19 -22 0
-19 -23 0
-19 -24 0
-20 -21 0
-20 -22 0
-20 -23 0
-20 -24 0
-21 -22 0
-21 -23 0
-21 -24 0
-22 -23 0
-22 -24 0
-23 -24 0
-25 -26 0
-25 -27 0
-25 -28 0
-25 -29 0
-25 -30 0
-26 -27 0
-26 -28 0
-26 -29 0
-26 -30 0
-27 -28 0
-27 -29 0
-27 -30 0
-28 -29 0
-28 -30 0
-29 -30 0
-31 -32 0
-31 -33 0
-31 -34 0
-31 -35 0
-31 -36 0
-32 -33 0
-32 -34 0
-32 -35 0
-32 -36 0
-33 -34 0
-33 -35 0
-33 -36 0
-34 -35 0
-34 -36 0
-35 -36 0
-37 -38 0
-37 -39 0
-37 -40 0
-37 -41 0
-37 -42 0
-38 -39 0
-38 -40 0
-38 -41 0
-38 -42 0
-39 -40 0
-39 -41 0
-39 -42 0
-40 -41 0
-40 -42 0
-41 -42 0
-43 -44 0
-43 -45 0
-43 -46 0
-43 -47 0
-43 -48 0
-44 -45 0
-44 -46 0
-44 -47 0
-44 -48 0
-45 -46 0
-45 -47 0
-45 -48 0
-46 -47 0
-46 -48 0
-47 -48 0
-49 -50 0
-49 -51 0
-49 -52 0
-49 -53 0
-49 -54 0
-50 -51 0
-50 -52 0
-50 -53 0
-50 -54 0
-51 -52 0
-51 -53 0
-51 -54 0
-52 -53 0
-52 -54 0
-53 -54 0
-55 -56 0
-55 -57 0
-55 -58 0
-55 -59 0
-55 -60 0
-56 -57 0
-56 -58 0
-56 -59 0
-56 -60 0
-57 -58 0
-57 -59 0
-57 -60 0
-58 -59 0
-58 -60 0
-59 -60 0
-1 -8 0
-1 -9 0
-1 -10 0
-1 -11 0
-1 -12 0
-1 -38 0
-1 -39 0
-1 -40 0
-1 -41 0
-1 -42 0
-2 -7 0
-2 -9 0
-2 -10 0
-2 -11 0
-2 -12 0
-2 -37 0
-2 -39 0
-2 -40 0
-2 -41 0
-2 -42 0
-3 -7 0
-3 -8 0
-3 -10 0
-3 -11 0
-3 -12 0
-3 -37 0
-3 -38 0
-3 -40 0
-3 -41 0
-3 -42 0
-4 -7 0
-4 -8 0
-4 -9 0
-4 -11 0
-4 -12 0
-4 -37 0
-4 -38 0
-4 -39 0
-4 -41 0
-4 -42 0
-5 -7 0
-5 -8 0
-5 -9 0
-5 -10 0
-5 -12 0
-5 -37 0
-5 -38 0
-5 -39 0
-5 -40 0
-5 -42 0
-6 -7 0
-6 -8 0
-6 -9 0
-6 -10 0
-6 -11 0
-6 -37 0
-6 -38 0
-6 -39 0
-6 -40 0
-6 -41 0
-7 -14 0
-7 -15 0
-7 -16 0
-7 -17 0
-7 -18 0
-7 -20 0
-7 -21 0
-7 -22 0
-7 -23 0
-7 -24 0
-7 -32 0
-7 -33 0
-7 -34 0
-7 -35 0
-7 -36 0
-7 -44 0
-7 -45 0
-7 -46 0
-7 -47 0
-7 -48 0
-7 -50 0
-7 -51 0
-7 -52 0
-7 -53 0
-7 -54 0
-8 -13 0
-8 -15 0
-8 -16 0
-8 -17 0
-8 -18 0
-8 -19 0
-8 -21 0
-8 -22 0
-8 -23 0
-8 -24 0
-8 -31 0
-8 -33 0
-8 -34 0
-8 -35 0
-8 -36 0
-8 -43 0
-8 -45 0
-8 -46 0
-8 -47 0
-8 -48 0
-8 -49 0
-8 -51 0
-8 -52 0
-8 -53 0
-8 -54 0
-9 -13 0
-9 -14 0
-9 -16 0
-9 -17 0
-9 -18 0
-9 -19 0
-9 -20 0
-9 -22 0
-9 -23 0
-9 -24 0
-9 -31 0
-9 -32 0
-9 -34 0
-9 -35 0
-9 -36 0
-9 -43 0
-9 -44 0
-9 -46 0
-9 -47 0
-9 -48 0
-9 -49 0
-9 -50 0
-9 -52 0
-9 -53 0
-9 -54 0
-10 -13 0
-10 -14 0
-10 -15 0
-10 -17 0
-10 -18 0
-10 -19 0
-10 -20 0
-10 -21 0
-10 -23 0
-10 -24 0
-10 -31 0
-10 -32 0
-10 -33 0
-10 -35 0
-10 -36 0
-10 -43 0
-10 -44 0
-10 -45 0
-10 -47 0
-10 -48 0
-10 -49 0
-10 -50 0
-10 -51 0
-10 -53 0
-10 -54 0
-11 -13 0
-11 -14 0
-11 -15 0
-11 -16 0
-11 -18 0
-11 -19 0
-11 -20 0
-11 -21 0
-11 -22 0
-11 -24 0
-11 -31 0
-11 -32 0
-11 -33 0
-11 -34 0
-11 -36 0
-11 -43 0
-11 -44 0
-11 -45 0
-11 -46 0
-11 -48 0
-11 -49 0
-11 -50 0
-11 -51 0
-11 -52 0
-11 -54 0
-12 -13 0
-12 -14 0
-12 -15 0
-12 -16 0
-12 -17 0
-12 -19 0
-12 -20 0
-12 -21 0
-12 -22 0
-12 -23 0
-12 -31 0
-12 -32 0
-12 -33 0
-12 -34 0
-12 -35 0
-12 -43 0
-12 -44 0
-12 -45 0
-12 -46 0
-12 -47 0
-12 -49 0
-12 -50 0
-12 -51 0
-12 -52 0
-12 -53 0
-13 -38 0
-13 -39 0
-13 -40 0
-13 -41 0
-13 -42 0
-14 -37 0
-14 -39 0
-14 -40 0
-14 -41 0
-14 -42 0
-15 -37 0
-15 -38 0
-15 -40 0
-15 -41 0
-15 -42 0
-16 -37 0
-16 -38 0
-16 -39 0
-16 -41 0
-16 -42 0
-17 -37 0
-17 -38 0
-17 -39 0
-17 -40 0
-17 -42 0
-18 -37 0
-18 -38 0
-18 -39 0
-18 -40 0
-18 -41 0
-19 -26 0
-19 -27 0
-19 -28 0
-19 -29 0
-19 -30 0
-19 -38 0
-19 -39 0
-19 -40 0
-19 -41 0
-19 -42 0
-19 -56 0
-19 -57 0
-19 -58 0
-19 -59 0
-19 -60 0
-20 -25 0
-20 -27 0
-20 -28 0
-20 -29 0
-20 -30 0
-20 -37 0
-20 -39 0
-20 -40 0
-20 -41 0
-20 -42 0
-20 -55 0
-20 -57 0
-20 -58 0
-20 -59 0
-20 -60 0
-21 -25 0
-21 -26 0
-21 -28 0
-21 -29 0
-21 -30 0
-21 -37 0
-21 -38 0
-21 -40 0
-21 -41 0
-21 -42 0
-21 -55 0
-21 -56 0
-21 -58 0
-21 -59 0
-21 -60 0
-22 -25 0
-22 -26 0
-22 -27 0
-22 -29 0
-22 -30 0
-22 -37 0
-22 -38 0
-22 -39 0
-22 -41 0
-22 -42 0
-22 -55 0
-22 -56 0
-22 -57 0
-22 -59 0
-22 -60 0
-23 -25 0
-23 -26 0
-23 -27 0
-23 -28 0
-23 -30 0
-23 -37 0
-23 -38 0
-23 -39 0
-23 -40 0
-23 -42 0
-23 -55 0
-23 -56 0
-23 -57 0
-23 -58 0
-23 -60 0
-24 -25 0
-24 -26 0
-24 -27 0
-24 -28 0
-24 -29 0
-24 -37 0
-24 -38 0
-24 -39 0
-24 -40 0
-24 -41 0
-24 -55 0
-24 -56 0
-24 -57 0
-24 -58 0
-24 -59 0
-25 -50 0
-25 -51 0
-25 -52 0
-25 -53 0
-25 -54 0
-26 -49 0
-26 -51 0
-26 -52 0
-26 -53 0
-26 -54 0
-27 -49 0
-27 -50 0
-27 -52 0
-27 -53 0
-27 -54 0
-28 -49 0
-28 -50 0
-28 -51 0
-28 -53 0
-28 -54 0
-29 -49 0
-29 -50 0
-29 -51 0
-29 -52 0
-29 -54 0
-30 -49 0
-30 -50 0
-30 -51 0
-30 -52 0
-30 -53 0
-31 -38 0
-31 -39 0
-31 -40 0
-31 -41 0
-31 -42 0
-32 -37 0
-32 -39 0
-32 -40 0
-32 -41 0
-32 -42 0
-33 -37 0
-33 -38 0
-33 -40 0
-33 -41 0
-33 -42 0
-34 -37 0
-34 -38 0
-34 -39 0
-34 -41 0
-34 -42 0
-35 -37 0
-35 -38 0
-35 -39 0
-35 -40 0
-35 -42 0
-36 -37 0
-36 -38 0
-36 -39 0
-36 -40 0
-36 -41 0
-37 -44 0
-37 -45 0
-37 -46 0
-37 -47 0
-37 -48 0
-37 -50 0
-37 -51 0
-37 -52 0
-37 -53 0
-37 -54 0
-38 -43 0
-38 -45 0
-38 -46 0
-38 -47 0
-38 -48 0
-38 -49 0
-38 -51 0
-38 -52 0
-38 -53 0
-38 -54 0
-39 -43 0
-39 -44 0
-39 -46 0
-39 -47 0
-39 -48 0
-39 -49 0
-39 -50 0
-39 -52 0
-39 -53 0
-39 -54 0
-40 -43 0
-40 -44 0
-40 -45 0
-40 -47 0
-40 -48 0
-40 -49 0
-40 -50 0
-40 -51 0
-40 -53 0
-40 -54 0
-41 -43 0
-41 -44 0
-41 -45 0
-41 -46 0
-41 -48 0
-41 -49 0
-41 -50 0
-41 -51 0
-41 -52 0
-41 -54 0
-42 -43 0
-42 -44 0
-42 -45 0
-42 -46 0
-42 -47 0
-42 -49 0
-42 -50 0
-42 -51 0
-42 -52 0
-42 -53 0
-49 -56 0
-49 -57 0
-49 -58 0
-49 -59 0
-49 -60 0
-50 -55 0
-50 -57 0
-50 -58 0
-50 -59 0
-50 -60 0
-51 -55 0
-51 -56 0
-51 -58 0
-51 -59 0
-51 -60 0
-52 -55 0
-52 -56 0
-52 -57 0
-52 -59 0
-52 -60 0
-53 -55 0
-53 -56 0
-53 -57 0
-53 -58 0
-53 -60 0
-54 -55 0
-54 -56 0
-54 -57 0
-54 -58 0
-54 -59 0
